TYPE : Vertex Cover
DIMENSION: 23
EDGE_DATA_SECTION:
0 7
0 8
0 9
0 14
0 16
0 18
1 17
2 5
2 8
2 12
2 15
2 16
2 21
2 22
3 5
3 7
3 8
3 13
3 19
4 7
4 10
4 11
4 15
4 17
4 18
4 22
5 6
5 7
5 14
5 18
5 22
6 7
6 13
6 16
7 9
7 10
8 10
8 16
8 18
8 21
9 10
9 13
9 18
9 19
9 21
10 12
11 12
11 13
12 17
12 21
12 22
13 18
13 19
14 15
14 16
14 17
14 18
14 22
15 16
15 19
15 20
15 21
16 17
16 21
16 22
17 18
18 19
20 21
20 22
21 22
-1
VERTEX_DEGREE:
6.0 1.0 7.0 5.0 7.0 7.0 4.0 7.0 7.0 7.0 5.0 3.0 6.0 6.0 7.0 7.0 9.0 6.0 9.0 5.0 3.0 8.0 8.0
VERTEX_COVER:
0 2 3 5 7 9 10 11 13 15 16 17 18 21 22
EOF
